c generated by sgen
p cnf 65 140
-2 -3 -4 0
-1 -3 -4 0
-1 -2 -4 0
-1 -2 -3 0
-6 -7 -8 0
-5 -7 -8 0
-5 -6 -8 0
-5 -6 -7 0
-10 -11 -12 0
-9 -11 -12 0
-9 -10 -12 0
-9 -10 -11 0
-14 -15 -16 0
-13 -15 -16 0
-13 -14 -16 0
-13 -14 -15 0
-18 -19 -20 0
-17 -19 -20 0
-17 -18 -20 0
-17 -18 -19 0
-22 -23 -24 0
-21 -23 -24 0
-21 -22 -24 0
-21 -22 -23 0
-26 -27 -28 0
-25 -27 -28 0
-25 -26 -28 0
-25 -26 -27 0
-30 -31 -32 0
-29 -31 -32 0
-29 -30 -32 0
-29 -30 -31 0
-34 -35 -36 0
-33 -35 -36 0
-33 -34 -36 0
-33 -34 -35 0
-38 -39 -40 0
-37 -39 -40 0
-37 -38 -40 0
-37 -38 -39 0
-42 -43 -44 0
-41 -43 -44 0
-41 -42 -44 0
-41 -42 -43 0
-46 -47 -48 0
-45 -47 -48 0
-45 -46 -48 0
-45 -46 -47 0
-50 -51 -52 0
-49 -51 -52 0
-49 -50 -52 0
-49 -50 -51 0
-54 -55 -56 0
-53 -55 -56 0
-53 -54 -56 0
-53 -54 -55 0
-58 -59 -60 0
-57 -59 -60 0
-57 -58 -60 0
-57 -58 -59 0
-61 -62 -63 0
-61 -62 -64 0
-61 -62 -65 0
-61 -63 -64 0
-61 -63 -65 0
-61 -64 -65 0
-62 -63 -64 0
-62 -63 -65 0
-62 -64 -65 0
-63 -64 -65 0
26 42 57 0
39 42 57 0
39 26 57 0
39 26 42 0
2 30 7 0
24 30 7 0
24 2 7 0
24 2 30 0
16 60 50 0
33 60 50 0
33 16 50 0
33 16 60 0
41 40 65 0
18 40 65 0
18 41 65 0
18 41 40 0
45 14 23 0
43 14 23 0
43 45 23 0
43 45 14 0
1 27 12 0
19 27 12 0
19 1 12 0
19 1 27 0
11 37 6 0
13 37 6 0
13 11 6 0
13 11 37 0
22 20 46 0
49 20 46 0
49 22 46 0
49 22 20 0
47 58 64 0
8 58 64 0
8 47 64 0
8 47 58 0
44 51 32 0
10 51 32 0
10 44 32 0
10 44 51 0
53 63 21 0
9 63 21 0
9 53 21 0
9 53 63 0
31 15 25 0
62 15 25 0
62 31 25 0
62 31 15 0
34 4 61 0
38 4 61 0
38 34 61 0
38 34 4 0
17 54 59 0
29 54 59 0
29 17 59 0
29 17 54 0
35 55 3 0
48 55 3 0
48 35 3 0
48 35 55 0
56 36 5 0
56 36 28 0
56 36 52 0
56 5 28 0
56 5 52 0
56 28 52 0
36 5 28 0
36 5 52 0
36 28 52 0
5 28 52 0
